NAME: dataset22.tsp
TYPE: TSP 
COMMENT: 22
DIMENSION: 22
EDGE_WEIGHT_TYPE: NAN
NODE_COORD_SECTION
1 445.0215641301 174.0275619179
2 170.2408093777 323.6971323588
3 25.9987021732 359.0603590364
4 62.0332078936 296.5448040087
5 447.2836576727 449.6648002683
6 165.1081521657 468.7925341676
7 18.3332318217 459.4818422005
8 81.6197499055 278.1722597254
9 495.8270444498 276.11764481
10 245.0838842562 230.5644539952
11 27.0387759335 126.7185301673
12 291.5050861032 458.5074737656
13 353.2535479306 210.8945365618
14 349.683521795 368.8067574551
15 143.246740626 226.0870441227
16 262.8563799247 304.2010939265
17 98.718989306 39.3635131736
18 443.5357625572 480.8838405491
19 188.3685645791 47.6662582207
20 110.5196996539 343.1742768207
21 374.9744522664 328.7425727247
22 133.573095141 353.7874673486
EOF